\* Relaxation_LP *\
Minimize
Minimize_the_Uncertainty_Removed: 0.000127553364231 eps_2
 + 8.50355761541e-05 eps_4
Subject To
_C1: eps_2 + eps_4 >= 4599.6398454
Bounds
 eps_2 <= 7839.85593816
 eps_4 <= 11759.7839072
End
